
Value of objective function: 0.468936

Actual values of the variables:
X1                   0.0230834
X2                   0
X3                   0
X4                   0
X5                   0
X6                   0
X7                   0
X8                   0.15111
X9                   0.416346
X10                  0
X11                  0
X12                  0.409461
X13                  0.416441
X14                  0.0524952
X15                  0
X16                  0

Actual values of the constraints:
r_1                  -6.25405
r_2                  -1.63905
r_3                  0
r_4                  -2.20077
r_5                  -2.20077
r_6                  -3.36944
r_7                  0
r_8                  -1.82748
r_9                  0
r_10                 -51.7017
r_11                 -14.5024
r_12                 -2.56063
r_13                 0
r_14                 -13.8256
r_15                 -0.314045
r_16                 -75.6534
r_17                 -17.949
r_18                 -13.8256
r_19                 100
r_20                 9587.7
r_21                 157.92
r_22                 48.509
r_23                 264.19
r_24                 294.175
r_25                 0
r_26                 0
r_27                 129.561
r_28                 8.97831
r_29                 100
